registrations = 92;

tables = 12; % number of (physical) tables per round
chairs = 6;  % number of (physical) chairs per table
rounds = 3;  

TOPICS = {xxx, xxx, xxx, xxx, xxx, xxx, xxx, xxx, xxx, xxx, xxx, xxx};

topic = [xxx, xxx, xxx, xxx, xxx, xxx, xxx, xxx, xxx, xxx, xxx, xxx, 
         xxx, xxx, xxx, xxx, xxx, xxx, xxx, xxx, xxx, xxx, xxx, xxx, 
         xxx, xxx, xxx, xxx, xxx, xxx, xxx, xxx, xxx, xxx, xxx, xxx];
         
round = [1, 1, 1, 1, 1, 1, 1, 1, 1, 1, 1, 1, 2, 2, 2, 2, 2, 2, 2, 2, 2, 2, 2, 2, 3, 3, 3, 3, 3, 3, 3, 3, 3, 3, 3, 3];

suite = [1, 1, 1, 1, 1, 1, 2, 2, 2, 2, 2, 2, 3, 3, 3, 3, 3, 3, 4, 4, 4, 4, 4, 4, 5, 5, 5, 5, 5, 5, 6, 6, 6, 6, 6, 6, 
         7, 7, 7, 7, 7, 7, 8, 8, 8, 8, 8, 8, 9, 9, 9, 9, 9, 9, 10, 10, 10, 10, 10, 10, 11, 11, 11, 11, 11, 11, 12, 12, 12, 12, 12, 12, 
         13, 13, 13, 13, 13, 13, 14, 14, 14, 14, 14, 14, 15, 15, 15, 15, 15, 15, 16, 16, 16, 16, 16, 16, 17, 17, 17, 17, 17, 17, 18, 18, 18, 18, 18, 18, 
         19, 19, 19, 19, 19, 19, 20, 20, 20, 20, 20, 20, 21, 21, 21, 21, 21, 21, 22, 22, 22, 22, 22, 22, 23, 23, 23, 23, 23, 23, 24, 24, 24, 24, 24, 24, 
         25, 25, 25, 25, 25, 25, 26, 26, 26, 26, 26, 26, 27, 27, 27, 27, 27, 27, 28, 28, 28, 28, 28, 28, 29, 29, 29, 29, 29, 29, 30, 30, 30, 30, 30, 30, 
         31, 31, 31, 31, 31, 31, 32, 32, 32, 32, 32, 32, 33, 33, 33, 33, 33, 33, 34, 34, 34, 34, 34, 34, 35, 35, 35, 35, 35, 35, 36, 36, 36, 36, 36, 36];


signup = [|
            0,        0,      0,     0,       0,      1,      1,     0,   0,         0,      0,        1,   % 01: xxx
         |  0,        0,      0,     1,       1,      0,      0,     0,   0,         1,      0,        0,   % 02: xxx
         |  0,        0,      0,     0,       1,      0,      0,     0,   0,         1,      0,        1,   % 03: xxx
         |  0,        0,      1,     1,       0,      0,      0,     0,   0,         1,      0,        0,   % 04: xxx
         |  0,        1,      1,     0,       1,      0,      0,     0,   0,         0,      0,        0,   % 05: xxx
         |  0,        0,      0,     0,       0,      0,      0,     0,   0,         0,      0,        0,   % 06: xxx
         |  1,        1,      0,     0,       1,      0,      0,     0,   0,         0,      0,        0,   % 07: xxx
         |  0,        0,      1,     1,       0,      0,      0,     0,   0,         0,      1,        0,   % 08: xxx
         |  1,        0,      0,     0,       1,      0,      0,     0,   0,         0,      1,        0,   % 09: xxx
         |  1,        0,      0,     0,       0,      0,      0,     1,   0,         1,      0,        0,   % 10: xxx
         |  0,        1,      0,     0,       0,      0,      0,     0,   0,         1,      0,        1,   % 11: xxx
         |  1,        1,      0,     0,       0,      0,      0,     0,   0,         0,      1,        0,   % 12: xxx
         |  0,        0,      1,     0,       0,      0,      0,     0,   0,         0,      1,        1,   % 13: xxx
         |  0,        1,      1,     0,       1,      0,      0,     0,   0,         0,      0,        0,   % 14: xxx
         |  1,        0,      0,     1,       1,      0,      0,     0,   0,         0,      0,        0,   % 15: xxx
         |  1,        1,      0,     0,       0,      0,      1,     0,   0,         0,      0,        0,   % 16: xxx
         |  1,        0,      0,     0,       0,      1,      0,     0,   0,         0,      1,        0,   % 17: xxx
         |  0,        0,      1,     1,       1,      0,      0,     0,   0,         0,      0,        0,   % 18: xxx
         |  0,        1,      0,     1,       0,      0,      0,     0,   0,         0,      0,        1,   % 19: xxx
         |  0,        0,      0,     0,       0,      0,      0,     0,   0,         0,      0,        0,   % 20: xxx       
         |  1,        1,      0,     0,       0,      0,      0,     0,   0,         0,      0,        1,   % 21: xxx
         |  0,        1,      1,     0,       1,      0,      0,     0,   0,         0,      0,        0,   % 22: xxx
         |  0,        0,      1,     1,       1,      0,      0,     0,   0,         0,      0,        0,   % 23: xxx
         |  0,        0,      0,     0,       0,      1,      0,     1,   0,         0,      0,        1,   % 24: xxx
         |  0,        1,      0,     1,       1,      0,      0,     0,   0,         0,      0,        0,   % 25: xxx
         |  1,        0,      0,     0,       0,      1,      1,     0,   0,         0,      0,        0,   % 26: xxx
         |  0,        0,      0,     0,       1,      1,      1,     0,   0,         0,      0,        0,   % 27: xxx
         |  1,        1,      0,     0,       0,      0,      0,     0,   0,         0,      0,        1,   % 28: xxx
         |  0,        0,      0,     0,       0,      0,      1,     1,   0,         0,      0,        1,   % 29: xxx
         |  0,        0,      0,     0,       0,      0,      0,     0,   0,         0,      0,        0,   % 30: xxx 
         |  0,        0,      1,     0,       1,      0,      0,     0,   0,         0,      0,        1,   % 31: xxx
         |  0,        0,      0,     0,       0,      0,      0,     0,   0,         0,      0,        0,   % 32: xxx
         |  0,        0,      1,     0,       1,      0,      1,     0,   0,         0,      0,        0,   % 33: xxx
         |  1,        1,      1,     0,       0,      0,      0,     0,   0,         0,      0,        0,   % 34: xxx
         |  0,        0,      1,     0,       0,      0,      1,     0,   0,         0,      0,        1,   % 35: xxx
         |  0,        0,      1,     0,       0,      0,      1,     0,   0,         0,      0,        1,   % 36: xxx
         |  0,        0,      1,     0,       0,      0,      0,     0,   0,         0,      1,        1,   % 37: xxx
         |  1,        0,      1,     0,       0,      0,      1,     0,   0,         0,      0,        0,   % 38: xxx
         |  0,        0,      1,     1,       0,      0,      0,     0,   0,         0,      1,        0,   % 39: xxx
         |  0,        1,      1,     0,       0,      0,      0,     0,   0,         1,      0,        0,   % 40: xxx 
         |  0,        0,      0,     0,       0,      0,      0,     0,   1,         0,      0,        0,   % 41: xxx
         |  0,        0,      0,     0,       0,      0,      0,     0,   1,         0,      0,        0,   % 42: xxx	
         |  0,        0,      0,     0,       0,      0,      0,     0,   0,         0,      0,        0,   % 43: xxx	
         |  0,        0,      0,     0,       0,      0,      0,     0,   0,         0,      0,        0,   % 44: xxx
         |  1,        0,      0,     0,       0,      0,      0,     0,   1,         0,      1,        0,   % 45: xxx	
         |  1,        0,      0,     0,       0,      0,      0,     0,   1,         0,      1,        0,   % 46: xxx	
         |  0,        1,      0,     1,       1,      0,      0,     0,   0,         0,      0,        0,   % 47: xxx	
         |  0,        0,      0,     0,       0,      0,      1,     0,   0,         0,      0,        0,   % 48: xxx	
         |  0,        0,      0,     1,       0,      0,      0,     0,   0,         1,      1,        0,   % 49: xxx	
         |  0,        0,      0,     0,       0,      0,      1,     0,   0,         0,      0,        0,   % 50: xxx	 
         |  0,        0,      0,     0,       0,      0,      0,     0,   1,         0,      0,        0,   % 51: xxx	
         |  0,        0,      0,     0,       0,      0,      0,     0,   1,         0,      0,        0,   % 52: xxx	
         |  0,        0,      0,     0,       0,      0,      0,     0,   1,         0,      0,        0,   % 53: xxx
         |  0,        0,      0,     1,       0,      0,      0,     1,   0,         0,      0,        1,   % 54: xxx	
         |  0,        1,      0,     0,       1,      0,      1,     0,   0,         0,      0,        0,   % 55: xxx	
         |  0,        0,      0,     0,       0,      1,      1,     0,   0,         0,      0,        1,   % 56: xxx	
         |  0,        0,      0,     1,       1,      0,      1,     0,   0,         0,      0,        0,   % 57: xxx	
         |  0,        0,      0,     1,       1,      0,      1,     0,   0,         0,      0,        0,   % 58: xxx	
         |  0,        0,      0,     0,       0,      0,      0,     0,   1,         0,      1,        1,   % 59: xxx 
         |  1,        0,      0,     1,       0,      0,      0,     0,   0,         1,      0,        0,   % 60: xxx	
         |  0,        0,      1,     1,       0,      0,      0,     0,   0,         0,      1,        0,   % 61: xxx
         |  1,        1,      0,     1,       0,      0,      0,     0,   0,         0,      0,        0,   % 62: xxx	
         |  0,        0,      0,     0,       0,      0,      0,     0,   0,         0,      0,        0,   % 63: xxx
         |  0,        0,      0,     1,       0,      0,      0,     0,   0,         0,      1,        1,   % 64: xxx       
         |  0,        0,      0,     0,       0,      0,      0,     0,   0,         0,      0,        0,   % 65: xxx
         |  0,        0,      0,     0,       0,      0,      0,     0,   0,         0,      0,        0,   % 66: xxx
         |  0,        0,      0,     0,       0,      0,      0,     0,   0,         0,      0,        0,   % 67: xxx
         |  0,        0,      0,     0,       0,      0,      0,     0,   0,         0,      0,        0,   % 68: xxx
         |  0,        0,      0,     0,       0,      0,      0,     0,   0,         0,      0,        0,   % 69: xxx             
         |  0,        0,      0,     0,       0,      0,      0,     0,   0,         0,      0,        0,   % 70: xxx
         |  0,        0,      0,     0,       0,      1,      1,     0,   0,         0,      1,        0,   % 71: xxx
         |  0,        0,      0,     0,       0,      0,      0,     0,   0,         0,      0,        0,   % 72: xxx
         |  0,        0,      0,     0,       0,      0,      0,     0,   0,         0,      0,        0,   % 73: xxx
         |  0,        0,      0,     0,       0,      0,      0,     0,   0,         0,      0,        0,   % 74: xxx
         |  0,        0,      0,     0,       0,      0,      0,     0,   0,         0,      0,        0,   % 75: xxx
         |  0,        0,      0,     0,       0,      0,      0,     0,   0,         0,      0,        0,   % 76: xxx	
         |  0,        0,      0,     0,       0,      0,      0,     0,   0,         0,      0,        0,   % 77: xxx	
         |  0,        0,      0,     0,       0,      0,      0,     0,   0,         0,      0,        0,   % 78: xxx	
         |  0,        0,      0,     0,       0,      0,      0,     0,   0,         0,      0,        0,   % 79: xxx    
         |  0,        0,      0,     0,       0,      0,      0,     0,   0,         0,      0,        0,   % 80: xxx
         |  0,        0,      0,     0,       0,      1,      1,     0,   0,         0,      1,        0,   % 81: xxx
         |  0,        0,      0,     0,       0,      0,      0,     0,   0,         0,      0,        0,   % 82: xxx
         |  0,        0,      0,     0,       0,      0,      0,     0,   0,         0,      0,        0,   % 83: xxx	
         |  0,        0,      0,     0,       0,      0,      0,     0,   0,         0,      0,        0,   % 84: xxx
         |  0,        0,      0,     0,       0,      0,      0,     0,   0,         0,      0,        0,   % 85: xxx
         |  0,        0,      0,     0,       0,      0,      0,     0,   0,         0,      0,        0,   % 86: xxx         
         |  0,        0,      0,     0,       0,      0,      0,     0,   0,         0,      0,        0,   % 87: xxx
         |  0,        0,      0,     0,       0,      0,      0,     0,   0,         0,      0,        0,   % 88: xxx	
         |  0,        0,      0,     0,       0,      0,      0,     0,   0,         0,      0,        0,   % 89: xxx   
         |  0,        0,      0,     0,       0,      0,      0,     0,   0,         0,      0,        0,   % 90: xxx 
         |  0,        0,      0,     0,       0,      0,      0,     0,   0,         0,      0,        0,   % 91: xxx
         |  0,        0,      0,     0,       0,      0,      0,     0,   0,         0,      0,        0,   % 92: xxx     
         |];